262 5
10 10 10 10 10 

0 0 0 0 0 0 1 2 
0 0 0 0 0 0 4 3 4 5 12 
4 0 0 1 0 0 4 10 9 8 7 
10 0 0 8 0 0 3 11 10 6 
4 0 0 5 0 0 2 9 8 
7 0 0 8 0 0 1 7 
7 0 0 5 0 0 1 13 
7 0 0 3 0 0 1 13 
6 0 0 3 0 0 1 13 
3 0 0 6 0 0 1 13 
6 0 0 6 0 0 1 13 
10 0 0 5 0 0 1 13 
0 0 0 0 0 0 1 14 
0 0 0 0 0 0 5 15 16 17 18 24 
9 1 0 0 0 0 3 23 21 20 
4 3 0 0 0 0 2 23 20 
1 9 0 0 0 0 2 23 19 
10 2 0 0 0 0 2 23 19 
1 4 0 0 0 0 1 22 
4 4 0 0 0 0 1 22 
9 7 0 0 0 0 1 22 
1 4 0 0 0 0 1 25 
5 8 0 0 0 0 1 25 
4 8 0 0 0 0 1 25 
0 0 0 0 0 0 3 26 58 90 
0 0 0 0 0 0 6 27 28 29 30 31 32 
1 0 3 0 1 1 3 35 34 33 
10 0 10 0 6 9 4 44 42 35 33 
2 0 5 0 6 8 3 42 35 33 
9 0 7 0 4 8 2 34 33 
1 0 2 0 7 6 3 37 36 34 
8 0 4 0 7 6 3 38 36 34 
9 0 1 0 8 3 4 40 39 37 36 
1 0 5 0 5 7 4 44 42 40 39 
6 0 6 0 2 4 2 41 38 
10 0 6 0 5 3 3 46 45 43 
10 0 6 0 2 9 3 46 45 43 
9 0 5 0 10 2 3 46 45 43 
7 0 3 0 2 5 2 46 43 
5 0 3 0 9 3 2 46 43 
3 0 7 0 2 4 2 46 43 
6 0 10 0 4 1 1 43 
5 0 7 0 5 2 4 56 53 48 47 
10 0 5 0 10 6 2 47 45 
3 0 5 0 2 6 5 56 53 51 50 49 
3 0 8 0 6 6 4 53 50 49 47 
7 0 1 0 5 4 3 55 51 196 
7 0 8 0 6 3 2 50 49 
3 0 3 0 5 8 2 55 54 
5 0 5 0 8 5 2 55 54 
10 0 5 0 1 8 1 52 
1 0 6 0 4 8 1 54 
9 0 6 0 6 2 1 55 
7 0 3 0 5 6 1 57 
3 0 2 0 4 3 1 57 
10 0 3 0 3 4 1 57 
0 0 0 0 0 0 1 262 
0 0 0 0 0 0 6 59 60 61 62 63 88 
6 5 1 1 0 0 5 71 67 66 65 64 
1 4 5 3 0 0 6 80 71 70 67 65 64 
6 5 3 2 0 0 5 71 69 67 65 64 
10 4 3 5 0 0 4 74 67 66 64 
5 8 3 5 0 0 4 87 74 68 66 
1 7 8 4 0 0 2 73 68 
4 4 7 5 0 0 3 75 74 72 
2 5 7 9 0 0 2 70 69 
2 6 6 6 0 0 2 75 72 
9 5 6 4 0 0 1 72 
8 7 9 4 0 0 1 72 
10 5 7 6 0 0 1 72 
6 4 4 5 0 0 1 72 
2 5 3 5 0 0 6 86 85 84 82 79 76 
10 5 7 2 0 0 4 85 79 76 75 
4 4 5 10 0 0 3 83 82 76 
2 8 4 7 0 0 3 84 83 82 
8 2 1 5 0 0 1 77 
2 4 6 9 0 0 1 78 
3 3 4 3 0 0 2 81 208 
4 5 3 5 0 0 1 83 
2 4 5 6 0 0 1 82 
9 4 4 3 0 0 1 89 
6 5 5 4 0 0 1 89 
8 2 4 8 0 0 1 89 
7 10 8 7 0 0 1 89 
7 8 7 2 0 0 1 89 
6 4 7 4 0 0 1 89 
5 5 3 6 0 0 1 89 
9 3 5 5 0 0 1 89 
0 0 0 0 0 0 1 262 
0 0 0 0 0 0 4 91 92 93 100 
8 0 1 0 0 0 4 99 96 95 94 
9 0 5 0 0 0 3 99 96 94 
8 0 3 0 0 0 3 99 95 94 
8 0 5 0 0 0 2 98 97 
10 0 10 0 0 0 1 98 
3 0 5 0 0 0 1 97 
4 0 7 0 0 0 1 101 
1 0 5 0 0 0 2 101 220 
5 0 7 0 0 0 1 101 
9 0 2 0 0 0 1 101 
0 0 0 0 0 0 5 102 124 146 168 180 
0 0 0 0 0 0 5 103 104 106 107 108 
8 0 0 0 1 1 3 112 105 133 
1 0 0 0 2 7 2 111 109 
7 0 0 0 7 8 4 122 115 113 110 
7 0 0 0 7 2 4 122 114 113 112 
3 0 0 0 8 8 3 122 112 110 
10 0 0 0 3 4 5 122 120 115 114 113 
10 0 0 0 5 4 4 122 120 114 113 
4 0 0 0 5 1 4 120 119 116 114 
3 0 0 0 6 9 3 120 115 113 
4 0 0 0 7 4 3 120 116 115 
8 0 0 0 2 4 3 119 118 116 
4 0 0 0 7 7 3 121 118 117 
7 0 0 0 5 3 3 119 118 117 
6 0 0 0 5 9 1 117 
9 0 0 0 9 7 1 123 
10 0 0 0 4 5 1 123 
1 0 0 0 2 5 1 123 
10 0 0 0 5 5 1 123 
10 0 0 0 6 4 1 123 
6 0 0 0 4 3 1 123 
0 0 0 0 0 0 1 262 
0 0 0 0 0 0 6 125 127 128 131 132 136 
6 1 0 0 1 0 2 135 126 
5 4 0 0 2 0 4 144 137 133 129 
2 7 0 0 5 0 3 141 137 130 
3 8 0 0 8 0 2 135 129 
3 2 0 0 5 0 4 143 140 138 134 
3 7 0 0 5 0 4 144 143 142 133 
3 8 0 0 8 0 3 141 135 133 
4 2 0 0 3 0 2 137 133 
7 5 0 0 6 0 4 140 139 138 252 
6 9 0 0 8 0 3 142 141 139 
10 4 0 0 7 0 2 139 137 
1 5 0 0 2 0 2 144 138 
7 5 0 0 4 0 1 138 
2 4 0 0 4 0 1 145 
2 6 0 0 7 0 1 145 
10 7 0 0 5 0 1 145 
5 3 0 0 2 0 1 145 
2 6 0 0 6 0 1 145 
1 6 0 0 3 0 1 145 
2 1 0 0 9 0 1 145 
0 0 0 0 0 0 1 262 
0 0 0 0 0 0 9 147 148 149 151 154 155 156 157 166 
7 1 0 1 0 0 6 165 164 163 162 153 188 
6 3 0 4 0 0 3 165 161 150 
8 5 0 3 0 0 2 161 152 
4 5 0 7 0 0 4 163 162 160 158 
7 3 0 7 0 0 2 161 153 
1 6 0 3 0 0 1 153 
7 6 0 6 0 0 2 160 158 
7 2 0 6 0 0 2 162 158 
9 10 0 3 0 0 2 160 158 
9 2 0 4 0 0 2 164 161 
5 5 0 5 0 0 1 158 
8 4 0 8 0 0 1 159 
5 5 0 6 0 0 1 167 
2 4 0 6 0 0 1 167 
3 7 0 6 0 0 1 167 
1 7 0 2 0 0 1 167 
6 8 0 6 0 0 1 167 
10 6 0 9 0 0 1 167 
10 4 0 3 0 0 1 167 
1 7 0 5 0 0 1 167 
0 0 0 0 0 0 1 262 
0 0 0 0 0 0 7 169 170 172 173 176 177 178 
1 0 0 0 0 1 2 175 174 
7 0 0 0 0 3 1 171 
6 0 0 0 0 5 1 174 
2 0 0 0 0 8 2 175 233 
7 0 0 0 0 5 1 174 
5 0 0 0 0 6 1 179 
2 0 0 0 0 8 1 179 
1 0 0 0 0 7 1 179 
6 0 0 0 0 2 1 179 
6 0 0 0 0 5 1 179 
0 0 0 0 0 0 5 202 214 226 238 250 
0 0 0 0 0 0 6 181 184 187 189 199 200 
1 0 0 1 0 1 2 198 182 
8 0 0 4 0 6 4 197 192 188 183 
4 0 0 3 0 3 4 196 195 190 186 
10 0 0 4 0 4 3 194 191 185 
4 0 0 5 0 9 2 192 188 
4 0 0 6 0 8 2 193 191 
1 0 0 3 0 3 2 194 190 
6 0 0 5 0 2 1 190 
1 0 0 6 0 6 1 194 
6 0 0 4 0 7 1 201 
9 0 0 7 0 4 1 201 
9 0 0 8 0 1 1 201 
9 0 0 4 0 5 1 201 
7 0 0 10 0 10 1 201 
2 0 0 5 0 6 1 201 
4 0 0 3 0 3 1 201 
4 0 0 4 0 6 1 201 
6 0 0 10 0 1 2 201 223 
3 0 0 5 0 6 1 201 
3 0 0 3 0 9 1 201 
0 0 0 0 0 0 1 262 
0 0 0 0 0 0 6 203 204 206 207 211 212 
10 0 2 0 0 0 2 208 205 
6 0 4 0 0 0 2 208 205 
2 0 9 0 0 0 1 209 
8 0 6 0 0 0 1 210 
5 0 5 0 0 0 1 208 
9 0 10 0 0 0 1 213 
3 0 3 0 0 0 1 213 
2 0 3 0 0 0 1 213 
3 0 5 0 0 0 2 213 219 
7 0 3 0 0 0 1 213 
0 0 0 0 0 0 1 262 
0 0 0 0 0 0 5 215 216 217 219 220 
6 0 1 0 0 0 3 224 221 218 
10 0 10 0 0 0 3 224 221 218 
4 0 1 0 0 0 3 224 223 221 
4 0 4 0 0 0 3 223 222 253 
8 0 8 0 0 0 1 222 
5 0 5 0 0 0 1 221 
9 0 8 0 0 0 1 225 
10 0 4 0 0 0 1 225 
7 0 6 0 0 0 1 225 
6 0 3 0 0 0 1 225 
0 0 0 0 0 0 1 262 
0 0 0 0 0 0 4 227 228 229 232 
3 0 0 1 0 0 5 236 235 234 231 241 
10 0 0 6 0 0 4 236 235 233 230 
7 0 0 9 0 0 3 235 233 230 
1 0 0 4 0 0 1 234 
4 0 0 5 0 0 1 233 
4 0 0 4 0 0 1 233 
3 0 0 5 0 0 1 237 
2 0 0 4 0 0 1 237 
8 0 0 4 0 0 1 237 
9 0 0 8 0 0 1 237 
0 0 0 0 0 0 1 262 
0 0 0 0 0 0 3 239 240 244 
1 0 0 0 1 0 2 243 241 
7 0 0 0 6 0 2 242 241 
2 0 0 0 2 0 3 247 246 245 
7 0 0 0 8 0 2 246 245 
10 0 0 0 6 0 1 248 
2 0 0 0 2 0 1 245 
3 0 0 0 6 0 1 249 
8 0 0 0 4 0 1 249 
5 0 0 0 6 0 2 249 252 
10 0 0 0 9 0 1 249 
0 0 0 0 0 0 1 262 
0 0 0 0 0 0 5 251 252 254 259 260 
3 1 0 0 0 0 3 258 257 253 
6 4 0 0 0 0 3 257 256 255 
3 5 0 0 0 0 1 255 
10 7 0 0 0 0 1 256 
8 8 0 0 0 0 1 261 
8 5 0 0 0 0 1 261 
4 5 0 0 0 0 1 261 
2 5 0 0 0 0 1 261 
1 5 0 0 0 0 1 261 
8 5 0 0 0 0 1 261 
0 0 0 0 0 0 1 262 
0 0 0 0 0 0 0 
